TYPE : Vertex Cover
DIMENSION: 29
EDGE_DATA_SECTION:
0 4
0 15
0 20
0 28
1 2
1 5
1 10
1 18
1 26
1 28
2 3
2 7
2 13
2 17
2 22
3 8
3 19
3 21
4 11
4 12
4 13
4 22
4 25
4 26
5 9
5 10
5 12
5 14
5 17
5 19
5 22
5 26
5 27
6 17
6 21
6 23
7 11
7 17
7 18
7 19
8 27
9 12
9 21
10 13
11 25
12 13
12 24
12 27
12 28
13 18
15 16
15 21
15 22
15 27
16 19
16 20
19 27
19 28
20 25
21 23
23 24
23 25
23 26
-1
VERTEX_DEGREE:
4.0 6.0 6.0 4.0 7.0 10.0 3.0 5.0 2.0 3.0 3.0 3.0 7.0 5.0 1.0 5.0 3.0 4.0 3.0 6.0 3.0 5.0 4.0 5.0 2.0 4.0 4.0 5.0 4.0
VERTEX_COVER:
2 4 5 8 10 11 12 15 17 18 19 20 21 23 26 28
EOF
